\ Model Routes
\ LP format - for model browsing. Use MPS format to capture full model detail.
Maximize
  1533.228206194839 R{0,0} + 2591.679024458567 R{0,1}
   + 2591.679024458567 R{0,2} - 249.2301939667805 R{0,3}
   + 234.7650315204939 R{0,4} + 397.2891588355392 R{0,5}
   + 1930.452493260636 R{0,6} + 1668.625850910052 R{0,7}
   + 2822.129771878508 R{0,8} + 1444.943961093893 R{0,9}
   + 2143.982036942227 R{0,10} + 3060.938714851127 R{0,11}
   + 2119.83447060153 R{0,12} + 992.4525421583735 R{0,13}
   + 2961.154795143851 R{0,14} + 1294.558168483449 R{0,15}
   + 306.8904272730141 R{0,16} + 2225.139175755964 R{0,17}
   + 1484.085168010492 R{0,18} + 2172.108142500622 R{0,19}
   + 1900.929796747462 R{0,20} + 2884.666299274601 R{0,21}
   + 1882.517857257796 R{0,22} + 1236.665484324532 R{0,23}
   + 1460.819546070009 R{0,24} + 1467.681995527797 R{0,25}
   + 1345.007316065258 R{0,26} + 2343.452000327873 R{0,27}
   + 1966.073484201331 R{0,28} + 1891.997615668325 R{0,29}
   + 1537.865351513532 R{0,30} + 992.1212202932231 R{0,31}
   + 1360.264913785577 R{0,32} + 1061.959409577865 R{0,33}
   + 2294.862698700107 R{0,34} + 2397.843041644395 R{0,35}
   + 1713.840989806073 R{0,36} + 1121.601495368345 R{0,37}
   + 1196.791359892773 R{0,38} + 1414.859480543595 R{0,39}
   + 1644.478694320633 R{0,40} + 1181.823075548707 R{0,41}
   + 1150.752871894097 R{0,42} + 1829.596988965633 R{0,43}
   + 2876.813760117408 R{0,44} + 1160.8860636077 R{0,45}
   - 256.140831891889 R{1,0} + 22.55008804458731 R{1,1}
   + 1141.439937477706 R{1,2} + 1141.439937477706 R{1,3}
   + 1088.220140993182 R{1,4} + 580.4363462525675 R{1,5}
   + 439.9001849467099 R{1,6} + 429.741130241937 R{1,7}
   + 366.675683587853 R{1,8} + 437.7394539642565 R{1,9}
   + 1586.050956293374 R{1,10} + 1005.375343114116 R{1,11}
   + 1202.882874500353 R{1,12} + 1142.169643884608 R{1,13}
   + 262.1067967216115 R{1,14} + 2045.840568523224 R{1,15}
   + 493.5136924538983 R{1,16} + 1179.699196380962 R{1,17}
   + 1152.148995051312 R{1,18} + 524.8831655568192 R{1,19}
   + 319.8279475678687 R{1,20} + 879.366992486003 R{1,21}
   + 865.0087034055762 R{1,22} + 1329.846158099417 R{1,23}
   - 278.4443928850388 R{2,0} - 231.9191033703545 R{2,1}
   + 429.989866465845 R{2,2} + 927.7209177062732 R{2,3}
   + 488.3333809175573 R{2,4} + 1177.501688672337 R{2,5}
   + 171.0837336675509 R{2,6} + 2255.714091819301 R{2,7}
   + 659.555717454111 R{2,8} + 143.7185351216316 R{2,9}
   + 1797.517655779636 R{2,10} + 731.0908634796981 R{2,11}
   + 754.8811145696279 R{2,12} + 275.2762590630646 R{2,13}
   + 731.0908634796981 R{2,14} + 497.9467364534373 R{2,15}
   + 395.796393489625 R{2,16} + 1177.501688672337 R{2,17}
   + 906.0459987169675 R{2,18} + 81.49155110227173 R{2,19}
   + 964.6684178476478 R{2,20} + 743.9043747986561 R{2,21}
   + 1534.135114558134 R{2,22} + 1321.318306484851 R{2,23}
   + 126.7399032690452 R{2,24} + 531.9660630459197 R{2,25}
   + 743.9043747986561 R{2,26} + 548.9891849225721 R{2,27}
   - 260.2482995389823 R{3,0} + 967.7221973521264 R{3,1}
   + 2038.112677924125 R{3,2} + 2399.115395194246 R{3,3}
   + 1102.592359695514 R{3,4} + 2279.717587291951 R{3,5}
   + 1477.685693204866 R{3,6} + 3588.046024793789 R{3,7}
   + 1479.017930685936 R{3,8} + 2508.881554480367 R{3,9}
   + 1870.111692604718 R{3,10} + 2177.225265211915 R{3,11}
   + 2355.918950259311 R{3,12} + 2141.13495741767 R{3,13}
   + 1542.370926133359 R{3,14} + 1526.413531804716 R{3,15}
   + 2438.58017821825 R{3,16} + 1774.959458399518 R{3,17}
   + 1409.083097083702 R{3,18} + 1024.004017293762 R{3,19}
   + 2770.374778155289 R{3,20} + 1347.140860283004 R{3,21}
   + 1304.92407860244 R{3,22} + 2026.623220568623 R{3,23}
   + 1942.754844086006 R{3,24} + 2261.670969078049 R{3,25}
   + 1358.048115556405 R{3,26} + 1294.806853438963 R{3,27}
   + 1097.31927728424 R{3,28} + 1881.364971706349 R{3,29}
   + 987.8776388330396 R{3,30} + 1605.658747016734 R{3,31}
   + 843.6089767639689 R{3,32} + 1223.068223465781 R{3,33}
   + 853.9791050673311 R{3,34} + 1293.624273839583 R{3,35}
   + 1309.008759124225 R{3,36} + 799.7037248397596 R{3,37}
   + 1123.161563911683 R{3,38} + 530.4998856008031 R{3,39}
   + 1113.300182670688 R{3,40} + 1854.965905698738 R{3,41}
   - 242.5208875955131 R{4,0} + 1055.572474837385 R{4,1}
   + 1576.196574514046 R{4,2} + 1830.328004810136 R{4,3}
   + 1296.737560256495 R{4,4} + 1193.961370158719 R{4,5}
   + 950.9107722256936 R{4,6} + 1493.409979631781 R{4,7}
   + 1750.911586236642 R{4,8} + 2381.679178903505 R{4,9}
   + 2738.634707965412 R{4,10} + 1244.176696661047 R{4,11}
   + 2540.206747917638 R{4,12} + 2806.646737319455 R{4,13}
   + 1160.370743264435 R{4,14} + 1689.393799623959 R{4,15}
   + 2487.721971757197 R{4,16} + 1293.618113104092 R{4,17}
   + 2344.132244194571 R{4,18} + 1564.55840100387 R{4,19}
   + 1269.312261964853 R{4,20} + 772.5499646325056 R{4,21}
   + 1205.889464554799 R{4,22} + 1673.408683716455 R{4,23}
   + 883.4841299475297 R{4,24} + 1442.652983430861 R{4,25}
   + 2469.651680814188 R{4,26} + 2579.077443254988 R{4,27}
   + 1699.462242867442 R{4,28} + 1142.352130897403 R{4,29}
   + 1322.368341203747 R{4,30} + 1917.774880583905 R{4,31}
   + 802.2378547896653 R{4,32} + 879.1176167407207 R{4,33}
   + 1581.523331844358 R{4,34} + 1058.700259622512 R{4,35}
   + 1465.261998595597 R{4,36} + 970.7416084654496 R{4,37}
   + 1945.347701484317 R{4,38} + 1631.3983945687 R{4,39}
   - 231.9775664337766 R{5,0} + 40.49903117334031 R{5,1}
   + 364.0546919427258 R{5,2} + 121.8846175883787 R{5,3}
   + 407.19691352129 R{5,4} + 121.8846175883787 R{5,5}
   + 311.1257442420315 R{5,6} + 756.7620356953053 R{5,7}
   + 442.3891827154735 R{5,8} + 210.7737746414709 R{5,9}
   + 531.7869833963746 R{5,10} + 225.8389981731085 R{5,11}
   + 677.7658790821033 R{5,12} + 496.088522703185 R{5,13}
   - 231.1436095783099 R{6,0} + 352.5135528432641 R{6,1}
   + 1376.623169502638 R{6,2} + 1941.768530245978 R{6,3}
   + 1555.728067218936 R{6,4} + 1217.535286400395 R{6,5}
   + 520.515424366431 R{6,6} + 1053.433498284484 R{6,7}
   + 800.6264739704127 R{6,8} + 959.0868291183397 R{6,9}
   + 911.7171500519821 R{6,10} + 2230.773094416064 R{6,11}
   + 1389.516721491936 R{6,12} + 1788.758703287802 R{6,13}
   + 2159.996428193209 R{6,14} + 535.2448390144189 R{6,15}
   + 355.3887478560794 R{6,16} + 1031.829264825536 R{6,17}
   + 261.4502967783948 R{6,18} + 261.635703411717 R{6,19}
   + 1002.410825828257 R{6,20} + 1057.40524400511 R{6,21}
   + 577.2045394409398 R{6,22} + 445.0456324124451 R{6,23}
   + 2245.907165433718 R{6,24} + 1003.527799822808 R{6,25}
   + 990.4200569192128 R{6,26} + 501.2121928445213 R{6,27}
   + 375.3647744162531 R{6,28} + 900.8122888457021 R{6,29}
   + 1212.926209550701 R{6,30} + 588.3541474914264 R{6,31}
   + 434.4343940262086 R{6,32}
Subject To
 R00: R{0,0} <= 1
 R01: R{0,1} <= 1
 R02: R{0,2} <= 1
 R03: R{0,3} <= 1
 R04: R{0,4} <= 1
 R05: R{0,5} <= 1
 R06: R{0,6} <= 1
 R07: R{0,7} <= 1
 R08: R{0,8} <= 1
 R09: R{0,9} <= 1
 R010: R{0,10} <= 1
 R011: R{0,11} <= 1
 R012: R{0,12} <= 1
 R013: R{0,13} <= 1
 R014: R{0,14} <= 1
 R015: R{0,15} <= 1
 R016: R{0,16} <= 1
 R017: R{0,17} <= 1
 R018: R{0,18} <= 1
 R019: R{0,19} <= 1
 R020: R{0,20} <= 1
 R021: R{0,21} <= 1
 R022: R{0,22} <= 1
 R023: R{0,23} <= 1
 R024: R{0,24} <= 1
 R025: R{0,25} <= 1
 R026: R{0,26} <= 1
 R027: R{0,27} <= 1
 R028: R{0,28} <= 1
 R029: R{0,29} <= 1
 R030: R{0,30} <= 1
 R031: R{0,31} <= 1
 R032: R{0,32} <= 1
 R033: R{0,33} <= 1
 R034: R{0,34} <= 1
 R035: R{0,35} <= 1
 R036: R{0,36} <= 1
 R037: R{0,37} <= 1
 R038: R{0,38} <= 1
 R039: R{0,39} <= 1
 R040: R{0,40} <= 1
 R041: R{0,41} <= 1
 R042: R{0,42} <= 1
 R043: R{0,43} <= 1
 R044: R{0,44} <= 1
 R045: R{0,45} <= 1
 R046: R{1,0} <= 1
 R047: R{1,1} <= 1
 R048: R{1,2} <= 1
 R049: R{1,3} <= 1
 R050: R{1,4} <= 1
 R051: R{1,5} <= 1
 R052: R{1,6} <= 1
 R053: R{1,7} <= 1
 R054: R{1,8} <= 1
 R055: R{1,9} <= 1
 R056: R{1,10} <= 1
 R057: R{1,11} <= 1
 R058: R{1,12} <= 1
 R059: R{1,13} <= 1
 R060: R{1,14} <= 1
 R061: R{1,15} <= 1
 R062: R{1,16} <= 1
 R063: R{1,17} <= 1
 R064: R{1,18} <= 1
 R065: R{1,19} <= 1
 R066: R{1,20} <= 1
 R067: R{1,21} <= 1
 R068: R{1,22} <= 1
 R069: R{1,23} <= 1
 R070: R{2,0} <= 1
 R071: R{2,1} <= 1
 R072: R{2,2} <= 1
 R073: R{2,3} <= 1
 R074: R{2,4} <= 1
 R075: R{2,5} <= 1
 R076: R{2,6} <= 1
 R077: R{2,7} <= 1
 R078: R{2,8} <= 1
 R079: R{2,9} <= 1
 R080: R{2,10} <= 1
 R081: R{2,11} <= 1
 R082: R{2,12} <= 1
 R083: R{2,13} <= 1
 R084: R{2,14} <= 1
 R085: R{2,15} <= 1
 R086: R{2,16} <= 1
 R087: R{2,17} <= 1
 R088: R{2,18} <= 1
 R089: R{2,19} <= 1
 R090: R{2,20} <= 1
 R091: R{2,21} <= 1
 R092: R{2,22} <= 1
 R093: R{2,23} <= 1
 R094: R{2,24} <= 1
 R095: R{2,25} <= 1
 R096: R{2,26} <= 1
 R097: R{2,27} <= 1
 R098: R{3,0} <= 1
 R099: R{3,1} <= 1
 R0100: R{3,2} <= 1
 R0101: R{3,3} <= 1
 R0102: R{3,4} <= 1
 R0103: R{3,5} <= 1
 R0104: R{3,6} <= 1
 R0105: R{3,7} <= 1
 R0106: R{3,8} <= 1
 R0107: R{3,9} <= 1
 R0108: R{3,10} <= 1
 R0109: R{3,11} <= 1
 R0110: R{3,12} <= 1
 R0111: R{3,13} <= 1
 R0112: R{3,14} <= 1
 R0113: R{3,15} <= 1
 R0114: R{3,16} <= 1
 R0115: R{3,17} <= 1
 R0116: R{3,18} <= 1
 R0117: R{3,19} <= 1
 R0118: R{3,20} <= 1
 R0119: R{3,21} <= 1
 R0120: R{3,22} <= 1
 R0121: R{3,23} <= 1
 R0122: R{3,24} <= 1
 R0123: R{3,25} <= 1
 R0124: R{3,26} <= 1
 R0125: R{3,27} <= 1
 R0126: R{3,28} <= 1
 R0127: R{3,29} <= 1
 R0128: R{3,30} <= 1
 R0129: R{3,31} <= 1
 R0130: R{3,32} <= 1
 R0131: R{3,33} <= 1
 R0132: R{3,34} <= 1
 R0133: R{3,35} <= 1
 R0134: R{3,36} <= 1
 R0135: R{3,37} <= 1
 R0136: R{3,38} <= 1
 R0137: R{3,39} <= 1
 R0138: R{3,40} <= 1
 R0139: R{3,41} <= 1
 R0140: R{4,0} <= 1
 R0141: R{4,1} <= 1
 R0142: R{4,2} <= 1
 R0143: R{4,3} <= 1
 R0144: R{4,4} <= 1
 R0145: R{4,5} <= 1
 R0146: R{4,6} <= 1
 R0147: R{4,7} <= 1
 R0148: R{4,8} <= 1
 R0149: R{4,9} <= 1
 R0150: R{4,10} <= 1
 R0151: R{4,11} <= 1
 R0152: R{4,12} <= 1
 R0153: R{4,13} <= 1
 R0154: R{4,14} <= 1
 R0155: R{4,15} <= 1
 R0156: R{4,16} <= 1
 R0157: R{4,17} <= 1
 R0158: R{4,18} <= 1
 R0159: R{4,19} <= 1
 R0160: R{4,20} <= 1
 R0161: R{4,21} <= 1
 R0162: R{4,22} <= 1
 R0163: R{4,23} <= 1
 R0164: R{4,24} <= 1
 R0165: R{4,25} <= 1
 R0166: R{4,26} <= 1
 R0167: R{4,27} <= 1
 R0168: R{4,28} <= 1
 R0169: R{4,29} <= 1
 R0170: R{4,30} <= 1
 R0171: R{4,31} <= 1
 R0172: R{4,32} <= 1
 R0173: R{4,33} <= 1
 R0174: R{4,34} <= 1
 R0175: R{4,35} <= 1
 R0176: R{4,36} <= 1
 R0177: R{4,37} <= 1
 R0178: R{4,38} <= 1
 R0179: R{4,39} <= 1
 R0180: R{5,0} <= 1
 R0181: R{5,1} <= 1
 R0182: R{5,2} <= 1
 R0183: R{5,3} <= 1
 R0184: R{5,4} <= 1
 R0185: R{5,5} <= 1
 R0186: R{5,6} <= 1
 R0187: R{5,7} <= 1
 R0188: R{5,8} <= 1
 R0189: R{5,9} <= 1
 R0190: R{5,10} <= 1
 R0191: R{5,11} <= 1
 R0192: R{5,12} <= 1
 R0193: R{5,13} <= 1
 R0194: R{6,0} <= 1
 R0195: R{6,1} <= 1
 R0196: R{6,2} <= 1
 R0197: R{6,3} <= 1
 R0198: R{6,4} <= 1
 R0199: R{6,5} <= 1
 R0200: R{6,6} <= 1
 R0201: R{6,7} <= 1
 R0202: R{6,8} <= 1
 R0203: R{6,9} <= 1
 R0204: R{6,10} <= 1
 R0205: R{6,11} <= 1
 R0206: R{6,12} <= 1
 R0207: R{6,13} <= 1
 R0208: R{6,14} <= 1
 R0209: R{6,15} <= 1
 R0210: R{6,16} <= 1
 R0211: R{6,17} <= 1
 R0212: R{6,18} <= 1
 R0213: R{6,19} <= 1
 R0214: R{6,20} <= 1
 R0215: R{6,21} <= 1
 R0216: R{6,22} <= 1
 R0217: R{6,23} <= 1
 R0218: R{6,24} <= 1
 R0219: R{6,25} <= 1
 R0220: R{6,26} <= 1
 R0221: R{6,27} <= 1
 R0222: R{6,28} <= 1
 R0223: R{6,29} <= 1
 R0224: R{6,30} <= 1
 R0225: R{6,31} <= 1
 R0226: R{6,32} <= 1
 R1_0: R{0,0} + R{0,1} + R{0,2} + R{0,3} + R{0,4} + R{0,5} + R{0,6}
   + R{0,7} + R{0,8} + R{0,9} + R{0,10} + R{0,11} + R{0,12} + R{0,13}
   + R{0,14} + R{0,15} + R{0,16} + R{0,17} + R{0,18} + R{0,19} + R{0,20}
   + R{0,21} + R{0,22} + R{0,23} + R{0,24} + R{0,25} + R{0,26} + R{0,27}
   + R{0,28} + R{0,29} + R{0,30} + R{0,31} + R{0,32} + R{0,33} + R{0,34}
   + R{0,35} + R{0,36} + R{0,37} + R{0,38} + R{0,39} + R{0,40} + R{0,41}
   + R{0,42} + R{0,43} + R{0,44} + R{0,45} <= 1
 R1_1: R{1,0} + R{1,1} + R{1,2} + R{1,3} + R{1,4} + R{1,5} + R{1,6}
   + R{1,7} + R{1,8} + R{1,9} + R{1,10} + R{1,11} + R{1,12} + R{1,13}
   + R{1,14} + R{1,15} + R{1,16} + R{1,17} + R{1,18} + R{1,19} + R{1,20}
   + R{1,21} + R{1,22} + R{1,23} <= 1
 R1_2: R{2,0} + R{2,1} + R{2,2} + R{2,3} + R{2,4} + R{2,5} + R{2,6}
   + R{2,7} + R{2,8} + R{2,9} + R{2,10} + R{2,11} + R{2,12} + R{2,13}
   + R{2,14} + R{2,15} + R{2,16} + R{2,17} + R{2,18} + R{2,19} + R{2,20}
   + R{2,21} + R{2,22} + R{2,23} + R{2,24} + R{2,25} + R{2,26} + R{2,27}
   <= 1
 R1_3: R{3,0} + R{3,1} + R{3,2} + R{3,3} + R{3,4} + R{3,5} + R{3,6}
   + R{3,7} + R{3,8} + R{3,9} + R{3,10} + R{3,11} + R{3,12} + R{3,13}
   + R{3,14} + R{3,15} + R{3,16} + R{3,17} + R{3,18} + R{3,19} + R{3,20}
   + R{3,21} + R{3,22} + R{3,23} + R{3,24} + R{3,25} + R{3,26} + R{3,27}
   + R{3,28} + R{3,29} + R{3,30} + R{3,31} + R{3,32} + R{3,33} + R{3,34}
   + R{3,35} + R{3,36} + R{3,37} + R{3,38} + R{3,39} + R{3,40} + R{3,41}
   <= 1
 R1_4: R{4,0} + R{4,1} + R{4,2} + R{4,3} + R{4,4} + R{4,5} + R{4,6}
   + R{4,7} + R{4,8} + R{4,9} + R{4,10} + R{4,11} + R{4,12} + R{4,13}
   + R{4,14} + R{4,15} + R{4,16} + R{4,17} + R{4,18} + R{4,19} + R{4,20}
   + R{4,21} + R{4,22} + R{4,23} + R{4,24} + R{4,25} + R{4,26} + R{4,27}
   + R{4,28} + R{4,29} + R{4,30} + R{4,31} + R{4,32} + R{4,33} + R{4,34}
   + R{4,35} + R{4,36} + R{4,37} + R{4,38} + R{4,39} <= 1
 R1_5: R{5,0} + R{5,1} + R{5,2} + R{5,3} + R{5,4} + R{5,5} + R{5,6}
   + R{5,7} + R{5,8} + R{5,9} + R{5,10} + R{5,11} + R{5,12} + R{5,13} <= 1
 R1_6: R{6,0} + R{6,1} + R{6,2} + R{6,3} + R{6,4} + R{6,5} + R{6,6}
   + R{6,7} + R{6,8} + R{6,9} + R{6,10} + R{6,11} + R{6,12} + R{6,13}
   + R{6,14} + R{6,15} + R{6,16} + R{6,17} + R{6,18} + R{6,19} + R{6,20}
   + R{6,21} + R{6,22} + R{6,23} + R{6,24} + R{6,25} + R{6,26} + R{6,27}
   + R{6,28} + R{6,29} + R{6,30} + R{6,31} + R{6,32} <= 1
 R2_0: 7 R{0,0} + 7 R{0,1} + 7 R{0,2} + 7 R{0,6} + 7 R{0,8} + 7 R{0,9}
   + 7 R{0,10} + 7 R{0,11} + 7 R{0,12} + 7 R{0,13} + 7 R{0,14} + 7 R{0,15}
   + 7 R{0,17} + 7 R{0,18} + 7 R{0,19} + 7 R{0,20} + 7 R{0,21} + 7 R{0,22}
   + 7 R{0,23} + 7 R{0,24} + 7 R{0,25} + 7 R{0,26} + 7 R{0,28} + 7 R{0,29}
   + 7 R{0,30} + 7 R{0,31} + 7 R{0,32} + 7 R{0,33} + 7 R{0,34} + 7 R{0,35}
   + 7 R{0,37} + 7 R{0,39} + 7 R{0,40} + 7 R{0,41} + 7 R{0,43} + 7 R{0,44}
   + 7 R{0,45} + 7 R{3,20} + 7 R{3,28} + 7 R{6,26} <= 7
 R2_1: 10 R{0,8} + 10 R{0,10} + 10 R{0,11} + 10 R{0,14} + 10 R{0,17}
   + 10 R{0,27} + 10 R{0,34} + 10 R{0,36} + 10 R{0,44} + 10 R{1,13}
   + 10 R{1,22} + 10 R{2,7} + 10 R{2,19} + 10 R{3,1} + 10 R{3,2}
   + 10 R{3,3} + 10 R{3,4} + 10 R{3,5} + 10 R{3,6} + 7 R{3,7} + 10 R{3,10}
   + 10 R{3,12} + 10 R{3,13} + 10 R{3,14} + 10 R{3,15} + 10 R{3,16}
   + 10 R{3,17} + 10 R{3,18} + 10 R{3,20} + 10 R{3,22} + 10 R{3,23}
   + 10 R{3,24} + 10 R{3,25} + 10 R{3,26} + 10 R{3,27} + 10 R{3,29}
   + 10 R{3,30} + 10 R{3,31} + 10 R{3,32} + 10 R{3,33} + 10 R{3,34}
   + 10 R{3,36} + 10 R{3,41} + 10 R{5,8} + 10 R{5,9} + 10 R{6,5}
   + 10 R{6,7} + 10 R{6,15} + 10 R{6,22} + 10 R{6,23} + 10 R{6,31} <= 10
 R2_2: <= 0
 R2_3: 4 R{2,13} + 4 R{2,23} + 4 R{2,24} + 4 R{2,25} + 4 R{3,5} + 4 R{3,9}
   + 4 R{3,17} + 4 R{3,18} + 4 R{3,23} + 4 R{3,24} + 4 R{3,30} + 4 R{3,40}
   + 4 R{5,1} + 4 R{5,2} + 4 R{5,3} + 4 R{5,4} + 4 R{5,5} + 4 R{5,7}
   + 4 R{5,8} + 4 R{5,9} + 4 R{5,13} <= 4
 R2_4: <= 0
 R2_5: 5 R{5,1} + 5 R{5,2} + 5 R{5,3} + 5 R{5,5} + 5 R{5,6} + 5 R{5,8}
   + 5 R{5,9} + 5 R{5,10} + 5 R{5,11} <= 5
 R2_6: 10 R{0,10} + 10 R{0,11} + 10 R{0,12} + 10 R{0,14} + 10 R{0,17}
   + 10 R{0,20} + 10 R{0,27} + 10 R{0,29} + 10 R{0,36} + 10 R{0,43}
   + 10 R{0,44} + 8 R{1,6} + 10 R{1,7} + 10 R{1,12} + 10 R{1,18}
   + 9 R{1,21} + 10 R{2,8} + 10 R{2,9} + 10 R{3,8} + 10 R{3,9} + 10 R{3,28}
   + 10 R{3,38} + 4 R{4,8} + 4 R{4,10} + 4 R{4,14} + 4 R{4,29} + 10 R{6,1}
   + 10 R{6,2} + 10 R{6,3} + 10 R{6,6} + 10 R{6,8} + 10 R{6,11}
   + 10 R{6,12} + 10 R{6,13} + 10 R{6,25} + 10 R{6,26} + 10 R{6,29}
   + 10 R{6,32} <= 10
 R2_7: <= 0
 R2_8: <= 0
 R2_9: 12 R{3,39} + 12 R{4,1} + 12 R{4,2} + 12 R{4,3} + 12 R{4,4}
   + 12 R{4,6} + 12 R{4,8} + 12 R{4,9} + 12 R{4,10} + 12 R{4,11}
   + 12 R{4,14} + 12 R{4,15} + 12 R{4,16} + 12 R{4,17} + 12 R{4,18}
   + 12 R{4,19} + 12 R{4,20} + 12 R{4,21} + 12 R{4,22} + 12 R{4,23}
   + 12 R{4,24} + 12 R{4,25} + 12 R{4,26} + 12 R{4,28} + 12 R{4,29}
   + 12 R{4,30} + 12 R{4,32} + 12 R{4,33} + 12 R{4,34} + 12 R{4,35}
   + 12 R{4,36} + 12 R{4,37} + 12 R{4,38} + 12 R{4,39} + 12 R{6,30} <= 12
 R2_10: 8 R{3,11} + 8 R{3,12} + 8 R{3,16} + 8 R{3,20} + 8 R{3,26}
   + 8 R{4,7} + 8 R{6,1} + 8 R{6,2} + 8 R{6,3} + 8 R{6,4} + 8 R{6,6}
   + 8 R{6,9} + 8 R{6,12} + 8 R{6,18} + 8 R{6,21} + 8 R{6,26} + 8 R{6,32}
   <= 8
 R2_11: 15 R{0,30} + 15 R{0,31} + 15 R{0,34} <= 15
 R2_12: <= 0
 R2_13: <= 0
 R2_14: <= 0
 R2_15: 11 R{0,0} + 11 R{0,1} + 11 R{0,2} + 11 R{0,6} + 11 R{0,8}
   + 11 R{0,9} + 11 R{0,10} + 11 R{0,11} + 11 R{0,13} + 11 R{0,14}
   + 11 R{0,15} + 11 R{0,24} + 11 R{0,26} + 11 R{0,33} + 11 R{0,38}
   + 11 R{0,44} + 11 R{4,1} + 11 R{4,2} + 11 R{4,3} + 11 R{4,4} + 11 R{4,6}
   + 11 R{4,11} + 11 R{4,15} + 11 R{4,17} + 11 R{4,18} + 6 R{4,25}
   + 11 R{4,26} <= 11
 R2_16: 5 R{0,17} + 5 R{0,18} + 5 R{0,23} + 5 R{0,27} + 5 R{0,36}
   + 3 R{3,12} + 3 R{3,20} + 2 R{4,9} + 2 R{4,10} + 2 R{4,12} + 2 R{4,13}
   + 2 R{4,16} + 5 R{4,26} + 5 R{4,28} + 5 R{4,30} + 5 R{4,35} + 2 R{4,38}
   + 5 R{6,11} + 5 R{6,13} + 5 R{6,14} + 5 R{6,20} + 5 R{6,30} <= 5
 R2_17: 11 R{0,31} + 11 R{0,36} + 11 R{0,42} + 11 R{3,7} + 11 R{3,33}
   + 11 R{3,34} + 11 R{4,16} + 11 R{6,17} + 11 R{6,31} <= 11
 R2_18: 5 R{0,17} + 5 R{0,18} + 5 R{0,23} + 5 R{0,27} + 5 R{0,36}
   + 5 R{0,40} + 5 R{0,41} + 5 R{0,44} + 5 R{2,25} + 5 R{3,28} + 5 R{3,31}
   + 5 R{3,33} + 5 R{3,34} + 5 R{3,36} + 5 R{3,38} + 5 R{4,35} + 5 R{6,31}
   <= 5
 R2_19: 11 R{0,16} + 11 R{0,26} + 11 R{0,28} + 8 R{0,35} + 11 R{0,39}
   + 11 R{1,19} + 11 R{1,22} + 11 R{2,6} + 11 R{2,12} + 11 R{2,13}
   + 11 R{2,21} + 11 R{2,25} + 11 R{2,26} + 11 R{2,27} + 11 R{3,5}
   + 11 R{3,17} + 11 R{3,18} + 11 R{3,22} + 11 R{3,23} + 11 R{3,31}
   + 11 R{3,35} + 11 R{3,40} + 11 R{4,1} + 11 R{4,2} + 11 R{4,3}
   + 11 R{4,4} + 11 R{4,6} + 11 R{4,8} + 11 R{4,10} + 11 R{4,11}
   + 11 R{4,14} + 11 R{4,15} + 11 R{4,16} + 11 R{4,17} + 11 R{4,18}
   + 11 R{4,19} + 11 R{4,20} + 9 R{4,23} + 11 R{4,25} + 11 R{4,27}
   + 11 R{4,29} + 11 R{4,30} + 11 R{4,34} + 11 R{4,38} + 11 R{4,39}
   + 10 R{5,12} + 11 R{5,13} + 11 R{6,4} + 11 R{6,21} + 11 R{6,22}
   + 11 R{6,23} <= 11
 R2_20: 13 R{0,5} + 8 R{0,21} + 13 R{0,40} + 13 R{1,4} + 13 R{1,15}
   + 4 R{1,22} + 13 R{1,23} + 13 R{2,3} + 13 R{2,5} + 13 R{2,11}
   + 13 R{2,14} + 13 R{2,15} + 13 R{2,17} + 13 R{3,1} + 13 R{3,2}
   + 13 R{3,3} + 13 R{3,6} + 8 R{3,7} + 13 R{3,10} + 13 R{3,11}
   + 13 R{3,12} + 13 R{3,13} + 13 R{3,15} + 13 R{3,16} + 13 R{3,19}
   + 13 R{3,20} + 13 R{3,25} + 13 R{3,41} + 13 R{4,13} + 13 R{5,2}
   + 13 R{5,10} + 13 R{6,5} + 13 R{6,15} <= 13
 R2_21: <= 0
 R2_22: 10 R{0,9} + 10 R{0,10} + 10 R{0,11} + 10 R{0,12} + 10 R{0,14}
   + 10 R{0,20} + 10 R{0,29} + 10 R{0,38} + 10 R{0,39} + 10 R{0,40}
   + 10 R{0,41} + 10 R{0,44} + 10 R{3,16} + 10 R{3,17} + 10 R{3,18}
   + 10 R{3,22} + 10 R{3,26} + 10 R{3,28} + 10 R{4,7} + 10 R{4,26}
   + 10 R{4,35} + 10 R{6,16} + 10 R{6,19} <= 10
 R2_23: 14 R{0,27} + 14 R{3,7} + 14 R{3,16} + 14 R{4,5} + 14 R{6,2}
   + 14 R{6,3} + 14 R{6,4} + 14 R{6,11} + 14 R{6,12} + 14 R{6,14}
   + 14 R{6,24} + 14 R{6,30} <= 14
 R2_24: 10 R{0,8} + 10 R{0,10} + 8 R{0,11} + 10 R{0,12} + 8 R{0,14}
   + 10 R{0,15} + 10 R{0,19} + 10 R{0,20} + 10 R{0,21} + 8 R{0,28}
   + 10 R{0,29} + 10 R{0,32} + 10 R{0,35} + 10 R{0,41} + 10 R{0,43}
   + 10 R{1,9} + 10 R{1,11} + 10 R{1,13} + 8 R{1,15} + 10 R{1,20}
   + 8 R{2,5} + 10 R{2,11} + 10 R{2,14} + 8 R{2,17} + 10 R{2,18}
   + 10 R{2,20} + 10 R{2,25} + 10 R{3,1} + 10 R{3,2} + 10 R{3,3}
   + 10 R{3,4} + 10 R{3,5} + 10 R{3,7} + 10 R{3,9} + 10 R{3,11}
   + 10 R{3,12} + 10 R{3,14} + 10 R{3,16} + 10 R{3,20} + 10 R{3,21}
   + 8 R{3,24} + 10 R{3,25} + 10 R{3,27} + 10 R{3,29} + 10 R{3,31}
   + 10 R{3,35} + 10 R{4,12} + 10 R{4,26} + 10 R{5,8} + 10 R{5,13} <= 10
 R2_25: 13 R{0,0} + 13 R{0,1} + 13 R{0,2} + 13 R{0,6} + 13 R{0,7}
   + 13 R{0,8} + 13 R{0,9} + 13 R{0,10} + 13 R{0,11} + 13 R{0,12}
   + 13 R{0,13} + 13 R{0,14} + 13 R{0,15} + 13 R{0,19} + 13 R{0,20}
   + 13 R{0,21} + 13 R{0,22} + 13 R{0,24} + 13 R{0,25} + 13 R{0,26}
   + 13 R{0,28} + 13 R{0,29} + 13 R{0,30} + 13 R{0,32} + 13 R{0,33}
   + 13 R{0,34} + 13 R{0,35} + 13 R{0,37} + 13 R{0,38} + 13 R{0,40}
   + 13 R{0,43} + 13 R{0,44} + 13 R{0,45} + 10 R{2,20} + 13 R{3,8}
   + 13 R{3,24} + 13 R{4,1} + 13 R{4,2} + 13 R{4,3} + 13 R{4,4} + 13 R{4,6}
   + 13 R{4,8} + 13 R{4,10} + 13 R{4,14} + 13 R{4,15} + 13 R{4,16}
   + 13 R{4,17} + 13 R{4,20} + 13 R{4,21} + 13 R{4,22} + 13 R{4,24}
   + 13 R{4,25} + 13 R{4,26} + 13 R{4,29} + 13 R{4,30} + 13 R{4,32}
   + 13 R{4,33} + 13 R{4,34} + 13 R{4,38} + 13 R{4,39} <= 13
 R2_26: 6 R{0,34} + 6 R{1,1} + 6 R{1,2} + 6 R{1,3} + 6 R{1,4} + 6 R{1,5}
   + 6 R{1,7} + 6 R{1,9} + 6 R{1,10} + 6 R{1,11} + 6 R{1,12} + 6 R{1,14}
   + 6 R{1,16} + 6 R{1,17} + 6 R{1,19} + 6 R{1,20} + 6 R{1,21} + 6 R{1,23}
   + 6 R{2,7} + 6 R{2,15} + 6 R{3,37} + 6 R{4,9} + 6 R{4,12} + 6 R{4,13}
   + 6 R{4,27} + 6 R{4,28} + 6 R{4,31} + 6 R{4,36} <= 6
 R2_27: 5 R{0,17} + 5 R{0,18} + 5 R{0,22} + 5 R{0,23} + 5 R{0,27}
   + 5 R{0,34} + 5 R{1,2} + 5 R{1,3} + 5 R{1,10} + 5 R{1,11} + 5 R{1,12}
   + 5 R{1,15} + 5 R{1,17} + 5 R{1,23} + 5 R{3,9} + 5 R{4,4} + 5 R{4,13}
   + 5 R{4,17} + 5 R{4,18} + 5 R{4,20} + 5 R{4,22} + 5 R{4,25} + 5 R{4,26}
   + 5 R{4,27} + 5 R{4,30} + 5 R{4,34} + 5 R{4,37} + 5 R{5,4} + 5 R{5,7}
   + 5 R{5,12} <= 5
 R2_28: <= 0
 R2_29: <= 0
 R2_30: <= 0
 R2_31: 6 R{0,29} + 6 R{1,12} + 6 R{1,18} + 6 R{1,21} + 6 R{1,23}
   + 6 R{3,28} + 6 R{3,36} + 6 R{3,38} + 6 R{6,1} + 6 R{6,2} + 6 R{6,4}
   + 6 R{6,6} + 6 R{6,8} + 6 R{6,12} + 6 R{6,16} + 6 R{6,18} + 6 R{6,19}
   + 6 R{6,21} + 6 R{6,25} + 6 R{6,26} + 6 R{6,29} + 6 R{6,32} <= 6
 R2_32: 7 R{0,4} + 7 R{0,5} + 7 R{0,16} + 7 R{1,4} + 7 R{1,5} + 7 R{1,6}
   + 7 R{1,7} + 7 R{1,8} + 7 R{1,13} + 7 R{1,16} + 7 R{1,19} + 7 R{2,12}
   + 7 R{2,21} + 7 R{2,26} + 7 R{3,8} + 7 R{5,10} + 7 R{5,11} <= 7
 R2_33: 12 R{0,18} + 12 R{0,23} + 10 R{2,7} + 10 R{2,10} + 12 R{2,12}
   + 10 R{2,18} + 12 R{2,21} + 10 R{2,22} + 10 R{2,23} + 12 R{2,24}
   + 12 R{2,26} + 12 R{2,27} + 12 R{3,9} + 12 R{3,14} <= 12
 R2_34: 5 R{0,0} + 5 R{0,1} + 5 R{0,2} + 5 R{0,6} + 5 R{0,7} + 5 R{0,11}
   + 5 R{0,14} + 5 R{0,15} + 5 R{0,19} + 5 R{0,21} + 5 R{0,22} + 5 R{0,24}
   + 5 R{0,25} + 5 R{0,26} + 5 R{0,28} + 5 R{0,30} + 5 R{0,31} + 5 R{0,34}
   + 5 R{0,35} + 5 R{0,43} + 5 R{0,44} + 5 R{3,12} + 5 R{3,20} + 5 R{3,40}
   + 5 R{4,5} + 5 R{4,7} + 5 R{4,10} + 5 R{4,38} <= 5
 R2_35: 13 R{3,11} + 13 R{4,5} + 13 R{6,9} + 13 R{6,10} + 13 R{6,17} <= 13
 R2_36: 15 R{1,1} + 15 R{1,2} + 15 R{1,3} + 15 R{1,9} + 15 R{1,10}
   + 15 R{1,11} + 15 R{1,12} + 15 R{1,14} + 15 R{1,15} + 15 R{1,17}
   + 15 R{1,18} + 15 R{1,20} <= 16
 R2_37: 5 R{0,34} + 5 R{1,5} + 5 R{1,16} + 5 R{2,7} + 5 R{2,10} + 5 R{2,18}
   + 5 R{2,20} + 5 R{2,22} + 5 R{3,8} + 5 R{5,1} + 5 R{5,3} + 5 R{5,4}
   + 5 R{5,5} + 5 R{5,6} + 5 R{5,7} + 5 R{5,11} + 5 R{5,12} <= 5
 R2_38: <= 0
 R2_39: 15 R{0,0} + 15 R{0,1} + 15 R{0,2} + 15 R{0,6} + 15 R{0,9}
   + 15 R{0,13} + 15 R{0,15} + 15 R{0,17} + 15 R{0,18} + 15 R{0,19}
   + 15 R{0,21} + 15 R{0,22} + 15 R{0,23} + 15 R{0,24} + 15 R{0,25}
   + 15 R{0,26} + 15 R{0,28} + 15 R{0,32} + 15 R{0,33} + 15 R{0,35}
   + 15 R{0,36} + 15 R{0,37} + 15 R{0,38} + 15 R{0,39} + 15 R{0,45} <= 17
 R2_40: <= 15
 R2_41: 5 R{0,0} + 5 R{0,1} + 5 R{0,2} + 5 R{0,6} + 5 R{0,8} + 5 R{0,9}
   + 5 R{0,10} + 5 R{0,12} + 5 R{0,17} + 5 R{0,19} + 5 R{0,21} + 5 R{0,25}
   + 5 R{0,27} + 5 R{0,29} + 5 R{0,30} + 5 R{0,32} + 5 R{0,34} + 5 R{0,36}
   + 5 R{0,37} + 5 R{0,39} + 5 R{0,40} + 5 R{0,41} + 5 R{0,43} + 5 R{0,45}
   + 5 R{1,10} + 5 R{1,12} + 5 R{1,15} + 5 R{1,18} + 5 R{1,21} + 5 R{1,23}
   + 5 R{2,7} + 5 R{2,10} + 5 R{2,18} + 5 R{2,20} + 5 R{2,22} + 5 R{2,23}
   + 5 R{3,2} + 5 R{3,3} + 5 R{3,4} + 5 R{3,5} + 5 R{3,7} + 5 R{3,8}
   + 5 R{3,10} + 5 R{3,13} + 5 R{3,15} + 5 R{3,17} + 5 R{3,18} + 5 R{3,20}
   + 5 R{3,21} + 5 R{3,22} + 5 R{3,23} + 5 R{3,24} + 5 R{3,25} + 5 R{3,27}
   + 5 R{3,29} + 5 R{3,30} + 5 R{3,31} + 5 R{3,32} + 5 R{3,34} + 5 R{3,35}
   + 5 R{3,37} + 5 R{3,38} + 5 R{3,40} + 5 R{3,41} + 5 R{4,8} + 5 R{4,9}
   + 5 R{4,11} + 5 R{4,12} + 5 R{4,13} + 5 R{4,15} + 5 R{4,18} + 5 R{4,19}
   + 5 R{4,22} + 5 R{4,23} + 5 R{4,26} + 5 R{4,27} + 5 R{4,28} + 5 R{4,31}
   + 5 R{4,33} + 5 R{4,34} + 5 R{4,36} + 5 R{4,37} + 5 R{4,39} + 5 R{5,7}
   + 5 R{6,8} + 5 R{6,24} + 5 R{6,26} + 5 R{6,27} + 5 R{6,28} + 5 R{6,29}
   <= 5
 R2_42: 4 R{2,1} + 4 R{2,2} + 4 R{2,3} + 4 R{2,4} + 4 R{2,5} + 4 R{2,6}
   + 4 R{2,11} + 4 R{2,13} + 4 R{2,14} + 4 R{2,15} + 4 R{2,17} + 4 R{2,19}
   + 4 R{3,30} + 4 R{3,37} <= 4
 R2_43: <= 0
 R2_44: <= 0
 R2_45: <= 0
 R2_46: 9 R{0,7} + 9 R{0,8} + 9 R{0,10} + 9 R{0,11} + 9 R{0,12} + 9 R{0,14}
   + 9 R{0,20} + 9 R{0,42} + 9 R{0,43} + 9 R{0,44} + 9 R{3,11} + 9 R{3,12}
   + 9 R{3,20} + 9 R{4,7} + 9 R{4,8} + 9 R{4,9} + 9 R{4,10} + 9 R{4,12}
   + 9 R{4,13} + 9 R{4,16} + 9 R{4,23} + 9 R{4,25} + 9 R{4,27} + 9 R{4,31}
   + 9 R{4,36} + 9 R{4,38} + 9 R{4,39} <= 9
 R2_47: 7 R{0,0} + 7 R{0,1} + 7 R{0,2} + 7 R{0,6} + 7 R{0,8} + 7 R{0,9}
   + 7 R{0,13} + 7 R{0,15} + 7 R{0,19} + 7 R{0,21} + 7 R{0,22} + 7 R{0,24}
   + 7 R{0,25} + 7 R{0,30} + 7 R{0,31} + 7 R{0,32} + 7 R{0,33} + 7 R{0,35}
   + 7 R{0,37} + 7 R{0,45} + 7 R{1,1} + 7 R{1,2} + 7 R{1,3} + 7 R{1,10}
   + 7 R{1,11} + 7 R{1,14} + 7 R{1,15} + 7 R{1,17} + 7 R{1,20} <= 7
 R2_48: 4 R{0,7} + 4 R{0,14} + 4 R{0,42} + 4 R{0,44} + 4 R{4,1} + 4 R{4,2}
   + 4 R{4,3} + 4 R{4,4} + 4 R{4,6} + 4 R{4,8} + 4 R{4,9} + 4 R{4,10}
   + 4 R{4,11} + 4 R{4,12} + 4 R{4,13} + 4 R{4,14} + 4 R{4,15} + 4 R{4,16}
   + 4 R{4,17} + 4 R{4,18} + 4 R{4,19} + 4 R{4,20} + 4 R{4,21} + 4 R{4,22}
   + 4 R{4,24} + 4 R{4,26} + 4 R{4,27} + 4 R{4,28} + 4 R{4,31} + 4 R{4,33}
   + 4 R{4,34} + 4 R{4,36} + 4 R{4,37} + 4 R{4,38} + 4 R{4,39} <= 4
 R2_49: <= 0
 R2_50: <= 0
 R2_51: 11 R{1,14} + 11 R{2,12} + 11 R{2,24} + 11 R{3,17} + 11 R{3,18}
   + 11 R{3,22} + 11 R{3,40} + 11 R{4,9} + 11 R{4,28} <= 11
 R2_52: 10 R{4,5} + 10 R{4,7} + 10 R{4,29} + 10 R{4,35} <= 10
 R2_53: 13 R{3,39} + 13 R{4,1} + 13 R{4,2} + 13 R{4,4} + 13 R{4,6}
   + 13 R{4,10} + 13 R{4,11} + 13 R{4,16} + 13 R{4,17} + 13 R{4,18}
   + 13 R{4,19} + 13 R{4,20} + 13 R{4,23} + 13 R{4,25} + 13 R{4,30}
   + 13 R{4,38} <= 13
 R2_54: 9 R{0,40} + 9 R{0,41} + 9 R{3,1} + 9 R{3,2} + 9 R{3,3} + 9 R{3,4}
   + 9 R{3,5} + 9 R{3,6} + 9 R{3,7} + 9 R{3,9} + 9 R{3,10} + 9 R{3,11}
   + 9 R{3,12} + 9 R{3,13} + 9 R{3,14} + 9 R{3,15} + 9 R{3,16} + 9 R{3,17}
   + 9 R{3,18} + 9 R{3,19} + 9 R{3,20} + 9 R{3,21} + 9 R{3,22} + 9 R{3,23}
   + 9 R{3,25} + 9 R{3,26} + 9 R{3,27} + 9 R{3,28} + 9 R{3,29} + 9 R{3,30}
   + 9 R{3,31} + 9 R{3,32} + 9 R{3,35} + 9 R{3,36} + 9 R{3,37} + 9 R{3,38}
   + 9 R{3,39} + 9 R{3,40} + 9 R{3,41} + 9 R{4,31} + 9 R{4,36} + 9 R{6,28}
   <= 9
 R2_55: 8 R{3,28} + 8 R{3,33} + 8 R{3,36} + 8 R{3,38} + 8 R{3,39}
   + 8 R{6,31} <= 8
 R2_56: 6 R{0,1} + 6 R{0,2} + 6 R{0,6} + 6 R{0,8} + 6 R{0,21} + 6 R{0,24}
   + 6 R{0,35} + 6 R{1,18} + 6 R{2,7} + 6 R{2,10} + 6 R{3,2} + 6 R{3,3}
   + 6 R{3,6} + 6 R{3,7} + 6 R{3,9} + 6 R{3,10} + 6 R{3,11} + 6 R{3,13}
   + 6 R{3,15} + 6 R{3,17} + 6 R{3,25} + 6 R{3,27} + 6 R{3,29} + 6 R{3,33}
   + 6 R{3,41} + 6 R{4,7} + 6 R{4,9} + 6 R{4,15} + 6 R{4,24} + 6 R{4,26}
   + 6 R{4,32} + 6 R{6,2} + 6 R{6,3} + 6 R{6,4} + 6 R{6,9} + 6 R{6,10}
   + 6 R{6,17} + 6 R{6,25} <= 6
 R2_57: <= 0
 R2_58: <= 0
 R2_59: 10 R{0,7} + 10 R{0,33} + 10 R{0,42} + 10 R{3,5} + 10 R{3,8}
   + 10 R{3,11} + 10 R{3,23} + 10 R{3,24} + 10 R{3,30} + 10 R{3,31}
   + 10 R{3,36} + 10 R{3,37} + 10 R{4,3} + 10 R{4,5} + 10 R{4,9}
   + 10 R{4,12} + 10 R{4,13} + 10 R{4,19} + 10 R{4,21} + 10 R{4,23}
   + 10 R{4,27} + 10 R{4,28} + 10 R{4,31} + 10 R{4,35} + 10 R{6,6}
   + 10 R{6,9} + 10 R{6,18} <= 10
 R2_60: <= 0
 R2_61: 9 R{0,7} + 9 R{0,14} + 9 R{0,17} + 9 R{0,18} + 9 R{0,20}
   + 9 R{0,27} + 9 R{0,36} + 9 R{0,38} + 9 R{0,42} + 9 R{0,44} + 9 R{3,14}
   + 9 R{4,5} + 9 R{4,10} + 9 R{4,12} + 9 R{4,13} + 9 R{4,27} + 9 R{4,31}
   + 9 R{4,38} + 9 R{6,10} + 9 R{6,17} <= 9
 R2_62: 10 R{6,9} + 10 R{6,10} <= 10
 R2_63: <= 0
 R2_64: <= 0
 R2_65: 5 R{0,11} + 5 R{0,13} + 5 R{0,38} + 5 R{2,7} + 5 R{3,7} + 5 R{3,12}
   + 5 R{3,14} + 5 R{3,16} + 5 R{3,19} + 5 R{3,26} + 5 R{3,28} + 5 R{3,33}
   + 5 R{3,36} + 5 R{3,38} + 5 R{4,14} + 5 R{4,16} + 5 R{4,29} + 5 R{6,1}
   + 5 R{6,2} + 5 R{6,3} + 5 R{6,4} + 5 R{6,8} + 5 R{6,11} + 5 R{6,12}
   + 5 R{6,13} + 5 R{6,14} + 5 R{6,16} + 5 R{6,19} + 5 R{6,20} + 5 R{6,21}
   + 5 R{6,24} + 5 R{6,25} + 5 R{6,29} + 5 R{6,30} + 5 R{6,32} <= 5
 R2_66: 7 R{1,8} + 7 R{1,9} + 7 R{2,9} + 7 R{2,12} + 7 R{2,21} + 7 R{2,26}
   + 7 R{2,27} + 7 R{3,4} + 7 R{3,13} + 7 R{3,26} + 7 R{3,39} + 7 R{3,41}
   + 7 R{4,13} + 7 R{4,27} + 7 R{4,31} + 7 R{4,36} + 7 R{6,31} <= 7
 R2_67: 3 R{0,11} + 3 R{3,2} + 3 R{3,3} + 3 R{3,6} + 3 R{3,7} + 3 R{3,10}
   + 3 R{3,11} + 3 R{3,12} + 3 R{3,13} + 3 R{3,16} + 3 R{3,19} + 3 R{3,20}
   + 3 R{3,25} + 3 R{3,26} + 3 R{3,29} + 3 R{3,41} + 3 R{4,7} + 3 R{4,12}
   + 3 R{6,9} + 3 R{6,10} + 3 R{6,11} + 3 R{6,13} + 3 R{6,14} + 3 R{6,17}
   + 3 R{6,20} + 3 R{6,24} <= 3
 R2_68: 6 R{2,22} + 6 R{3,14} + 6 R{3,32} + 6 R{3,33} + 6 R{3,34}
   + 6 R{3,39} + 6 R{4,1} + 6 R{4,4} + 6 R{4,9} + 6 R{4,11} + 6 R{4,12}
   + 6 R{4,13} + 6 R{4,17} + 6 R{4,18} + 6 R{4,19} + 6 R{4,20} + 6 R{4,22}
   + 6 R{4,23} + 6 R{4,25} + 6 R{4,26} + 6 R{4,27} + 6 R{4,28} + 6 R{4,30}
   + 6 R{4,31} + 6 R{4,32} + 6 R{4,34} + 6 R{4,36} + 6 R{4,37} + 6 R{6,14}
   + 6 R{6,20} + 6 R{6,24} + 6 R{6,27} + 6 R{6,28} + 6 R{6,30} <= 6
 R2_69: 7 R{0,0} + 7 R{0,1} + 7 R{0,2} + 7 R{0,6} + 7 R{0,7} + 7 R{0,9}
   + 7 R{0,13} + 7 R{0,15} + 7 R{0,24} + 7 R{0,25} + 7 R{0,26} + 7 R{0,30}
   + 7 R{0,31} + 7 R{0,32} + 7 R{0,33} + 7 R{0,37} + 7 R{0,38} + 7 R{0,39}
   + 7 R{0,45} + 7 R{1,4} + 7 R{2,11} + 7 R{2,14} + 7 R{3,8} + 7 R{3,14}
   + 7 R{4,1} + 7 R{4,2} + 7 R{4,3} + 7 R{4,6} + 7 R{4,8} + 7 R{4,9}
   + 7 R{4,10} + 7 R{4,11} + 7 R{4,12} + 7 R{4,14} + 7 R{4,15} + 7 R{4,16}
   + 7 R{4,19} + 7 R{4,21} + 7 R{4,23} + 7 R{4,24} + 7 R{4,29} + 7 R{4,32}
   + 7 R{4,33} + 7 R{4,38} + 7 R{4,39} <= 7
 R2_70: 11 R{6,1} + 11 R{6,2} + 11 R{6,3} + 11 R{6,4} + 11 R{6,6}
   + 11 R{6,9} + 11 R{6,10} + 11 R{6,11} + 11 R{6,12} + 11 R{6,13}
   + 11 R{6,14} + 11 R{6,18} + 11 R{6,20} + 11 R{6,21} + 11 R{6,25}
   + 11 R{6,30} + 11 R{6,32} <= 11
 R2_71: 7 R{1,18} + 7 R{1,21} + 7 R{2,21} + 7 R{2,26} + 7 R{2,27}
   + 7 R{3,1} + 7 R{3,2} + 7 R{3,3} + 7 R{3,4} + 7 R{3,6} + 7 R{3,10}
   + 7 R{3,11} + 7 R{3,12} + 7 R{3,15} + 7 R{3,19} + 7 R{3,20} + 7 R{3,21}
   + 7 R{3,27} + 7 R{3,29} + 7 R{3,32} + 7 R{3,35} + 7 R{4,18} + 7 R{4,28}
   + 7 R{4,35} + 7 R{6,2} + 7 R{6,3} + 7 R{6,4} + 7 R{6,11} + 7 R{6,12}
   + 7 R{6,13} + 7 R{6,14} + 7 R{6,20} + 7 R{6,21} + 7 R{6,24} + 7 R{6,25}
   + 7 R{6,26} + 7 R{6,27} + 7 R{6,29} + 7 R{6,30} <= 7
 R2_72: <= 0
 R2_73: 11 R{0,0} + 11 R{0,1} + 11 R{0,2} + 11 R{0,6} + 11 R{0,7}
   + 11 R{0,8} + 11 R{0,9} + 11 R{0,10} + 11 R{0,12} + 11 R{0,13}
   + 11 R{0,15} + 11 R{0,19} + 11 R{0,20} + 11 R{0,21} + 11 R{0,22}
   + 11 R{0,24} + 11 R{0,25} + 11 R{0,26} + 11 R{0,28} + 11 R{0,29}
   + 11 R{0,30} + 11 R{0,31} + 11 R{0,32} + 11 R{0,33} + 11 R{0,34}
   + 11 R{0,35} + 11 R{0,37} + 11 R{0,38} + 11 R{0,39} + 11 R{0,40}
   + 11 R{0,41} + 11 R{0,42} + 11 R{0,43} + 11 R{0,45} <= 11
 R2_74: 5 R{0,17} + 5 R{0,18} + 5 R{0,23} + 5 R{0,27} + 5 R{0,36}
   + 5 R{5,1} + 5 R{5,2} + 5 R{5,3} + 5 R{5,5} + 5 R{5,6} + 5 R{5,8}
   + 5 R{5,9} + 5 R{5,10} + 5 R{5,11} + 5 R{5,13} <= 5
 R2_75: 8 R{0,17} + 8 R{0,18} + 8 R{0,23} + 8 R{0,27} + 8 R{3,14}
   + 8 R{6,1} + 8 R{6,2} + 8 R{6,3} + 8 R{6,4} + 8 R{6,6} + 8 R{6,8}
   + 8 R{6,9} + 8 R{6,10} + 8 R{6,11} + 8 R{6,12} + 8 R{6,13} + 8 R{6,14}
   + 8 R{6,16} + 8 R{6,17} + 8 R{6,18} + 8 R{6,20} + 8 R{6,21} + 8 R{6,24}
   + 8 R{6,25} + 8 R{6,26} + 8 R{6,27} + 8 R{6,30} + 8 R{6,32} <= 8
 R2_76: 12 R{0,4} + 12 R{0,12} + 12 R{0,20} + 12 R{0,29} + 12 R{1,4}
   + 12 R{1,5} + 12 R{1,6} + 12 R{1,8} + 12 R{1,11} + 8 R{1,16}
   + 12 R{1,22} + 12 R{2,10} + 12 R{2,18} + 12 R{2,20} + 12 R{2,22}
   + 12 R{2,23} + 12 R{3,3} + 12 R{3,7} + 12 R{3,9} + 12 R{3,13}
   + 12 R{3,16} + 12 R{3,25} + 12 R{3,26} + 12 R{3,29} + 12 R{3,35}
   + 12 R{3,36} + 12 R{5,6} + 12 R{6,7} + 12 R{6,12} + 12 R{6,21}
   + 5 R{6,22} <= 12
 R2_77: 7 R{0,1} + 7 R{0,2} + 7 R{0,8} + 7 R{0,11} + 7 R{0,14} + 7 R{0,19}
   + 7 R{0,21} + 7 R{0,22} + 7 R{0,28} + 7 R{0,35} + 7 R{0,44} + 7 R{1,2}
   + 7 R{1,3} + 7 R{1,10} + 7 R{1,13} + 7 R{1,15} + 7 R{1,17} + 7 R{2,2}
   + 7 R{2,3} + 7 R{2,4} + 7 R{2,5} + 7 R{2,7} + 7 R{2,8} + 7 R{2,10}
   + 7 R{2,16} + 7 R{2,17} + 7 R{2,22} + 7 R{2,23} + 7 R{3,5} + 7 R{3,7}
   + 7 R{3,9} + 7 R{3,21} + 7 R{3,23} + 7 R{3,24} + 7 R{4,2} + 7 R{4,3}
   + 7 R{4,10} + 7 R{4,16} + 7 R{4,18} + 7 R{6,3} + 7 R{6,5} + 7 R{6,7}
   + 7 R{6,11} + 7 R{6,13} + 7 R{6,14} + 7 R{6,24} <= 7
Bounds
End
